solution status: optimal solution found
objective value:                                    0
one.thingy.devices[0].thingy.vp2_y                   20 	(obj:0)
one.thingy.devices[0].thingy.vp2_z                   20 	(obj:0)
one.pump_a[1].hole_y                               19 	(obj:0)
one.pump_a[1].hole_z                               20 	(obj:0)
one.pump_a[1].flush_y                              19 	(obj:0)
one.pump_a[1].flush_z                              19 	(obj:0)
one.thingy.devices[0].thingy.vp4_y                   20 	(obj:0)
one.thingy.devices[0].thingy.vp4_z                   19 	(obj:0)
